Si298
1.0
  26.8770999908000014    0.0000000000000000    0.0000000000000000
 -13.4385499954000007   23.2762513720999991    0.0000000000000000
   0.0000000000000000    0.0000000000000000   30.6751003265000008
Si
298
direct
   0.1978999970000000    0.0974299980000000    0.4697999950000000 Si
   0.1448000070000000    0.1425399930000000    0.3686600030000000 Si
   0.2376299950000000    0.0437600020000000    0.3388600050000000 Si
   0.3266699910000000    0.0934000020000000    0.4697499870000000 Si
   0.2866699990000000    0.1417299960000000    0.3552300040000000 Si
   0.3811399940000000    0.0456999990000000    0.3431800010000000 Si
   0.2870199980000000    0.1420300010000000    0.4314399960000000 Si
   0.4840700030000000    0.0942699980000000    0.4693399970000000 Si
   0.4287700060000000    0.1406400050000000    0.3699600100000000 Si
   0.5234400030000000    0.0436500010000000    0.3387399910000000 Si
   0.4272899930000000    0.1387400030000000    0.4494799970000000 Si
   0.6135799880000000    0.0942500010000000    0.4693599940000000 Si
   0.5724599960000000    0.1416199950000000    0.3547700050000000 Si
   0.6678699850000001    0.0458500010000000    0.3431800010000000 Si
   0.5727700000000000    0.1421100050000000    0.4307599960000000 Si
   0.7700300220000000    0.0934000020000000    0.4697799980000000 Si
   0.7152400020000000    0.1407700030000000    0.3700099890000000 Si
   0.8093799950000000    0.0437600020000000    0.3388699890000000 Si
   0.7148600220000000    0.1388200070000000    0.4495500030000000 Si
   0.9027799960000000    0.0974500030000000    0.4698199930000000 Si
   0.8583499790000000    0.1417399940000000    0.3551599980000000 Si
   0.9537600280000000    0.0464599990000000    0.3435699940000000 Si
   0.8582800030000000    0.1420000050000000    0.4313699900000000 Si
   0.0010300000000000    0.1425199960000000    0.3686900140000000 Si
   0.0958800020000000    0.0465100000000000    0.3436000050000000 Si
   0.1441199930000000    0.2848800120000000    0.3550300000000000 Si
   0.2377900030000000    0.1907899980000000    0.3388899860000000 Si
   0.3266800050000000    0.2302400020000000    0.4698399900000000 Si
   0.2849299910000000    0.2832799850000000    0.3693099920000000 Si
   0.3851099910000000    0.1910299960000000    0.3407999870000000 Si
   0.4732199910000000    0.2350299950000000    0.4748699960000000 Si
   0.4287100140000000    0.2850199940000000    0.3699400130000000 Si
   0.5227699880000000    0.1905799960000000    0.3406699900000000 Si
   0.4272600110000000    0.2853600080000000    0.4494600000000000 Si
   0.6171900030000000    0.2310200040000000    0.4683699910000000 Si
   0.5725499990000000    0.2846600120000000    0.3696300090000000 Si
   0.6711199879999999    0.1906799970000000    0.3406699900000000 Si
   0.5686600210000000    0.2827700080000000    0.4491699930000000 Si
   0.7651500110000000    0.2351100000000000    0.4748899940000000 Si
   0.7154200080000001    0.2847799960000000    0.3695900140000000 Si
   0.8092100020000000    0.1910499930000000    0.3407999870000000 Si
   0.7174199820000000    0.2827900050000000    0.4491199850000000 Si
   0.9068400260000000    0.2302300040000000    0.4697900120000000 Si
   0.8595299720000000    0.2850199940000000    0.3700099890000000 Si
   0.9563300010000000    0.1907799990000000    0.3388800020000000 Si
   0.8614299890000000    0.2854000030000000    0.4495399890000000 Si
   0.0016300000000000    0.2832700010000000    0.3692899940000000 Si
   0.0949200020000000    0.1865399930000000    0.3398500080000000 Si
   0.1446499970000000    0.4275900130000000    0.3698999880000000 Si
   0.2423000040000000    0.3343600030000000    0.3400700090000000 Si
   0.2863000040000000    0.4276300070000000    0.3699400130000000 Si
   0.3811999860000000    0.3324599860000000    0.3431699870000000 Si
   0.4840900000000000    0.3866299990000000    0.4693300130000000 Si
   0.4306499960000000    0.4288100000000000    0.3686800000000000 Si
   0.5227500200000000    0.3289699850000000    0.3406899870000000 Si
   0.6172699930000000    0.3830100000000000    0.4684599940000000 Si
   0.5725600120000000    0.4276199940000000    0.3548200130000000 Si
   0.6678100230000000    0.3324399890000000    0.3424299960000000 Si
   0.5728300210000000    0.4274300040000000    0.4308199880000000 Si
   0.7692199950000000    0.3830200140000000    0.4683299960000000 Si
   0.7155399920000000    0.4276899990000000    0.3696300090000000 Si
   0.8095399740000000    0.3290500040000000    0.3406800030000000 Si
   0.7174900170000000    0.4315499960000000    0.4491699930000000 Si
   0.9060099720000000    0.3866899910000000    0.4693700080000000 Si
   0.8585600260000000    0.4277099970000000    0.3547700050000000 Si
   0.9544500110000000    0.3323999940000000    0.3431800010000000 Si
   0.8581699730000000    0.4275099930000000    0.4307700100000000 Si
   0.0015100000000000    0.4287500080000000    0.3686499890000000 Si
   0.0953399990000000    0.3342800140000000    0.3400399980000000 Si
   0.1444299970000000    0.5706599950000000    0.3540200000000000 Si
   0.2391600010000000    0.4749900100000000    0.3419399860000000 Si
   0.2863500120000000    0.5694100260000000    0.3697899880000000 Si
   0.3797599970000000    0.4720200000000000    0.3400200010000000 Si
   0.4295099970000000    0.5706899760000000    0.3539699910000000 Si
   0.5236300230000001    0.4766399860000000    0.3387500050000000 Si
   0.6136400100000000    0.5161600110000000    0.4693599940000000 Si
   0.5714499950000000    0.5696200130000000    0.3686900140000000 Si
   0.6711900230000000    0.4774500130000000    0.3406800030000000 Si
   0.7652400140000000    0.5269799830000000    0.4748399850000000 Si
   0.7152000070000000    0.5714799760000000    0.3699400130000000 Si
   0.8096299769999999    0.4774400000000000    0.3406800030000000 Si
   0.7148900030000001    0.5729500060000000    0.4494700130000000 Si
   0.9059900050000000    0.5161799790000000    0.4693799910000000 Si
   0.8596100209999999    0.5714399810000000    0.3699699940000000 Si
   0.9565200210000000    0.4767400030000000    0.3387399910000000 Si
   0.8615400200000000    0.5729799870000000    0.4494900110000000 Si
   0.0015300000000000    0.5697000030000000    0.3686800000000000 Si
   0.0955799970000000    0.4719800060000000    0.3400099870000000 Si
   0.1446300000000000    0.7139300110000000    0.3699499960000000 Si
   0.2431200000000000    0.6200600270000000    0.3404400050000000 Si
   0.2863099870000000    0.7139099840000001    0.3698500100000000 Si
   0.3801999990000000    0.6200699810000000    0.3404200080000000 Si
   0.4308600130000000    0.7139099840000001    0.3698199990000000 Si
   0.5281900170000000    0.6204599740000000    0.3400200010000000 Si
   0.5725799800000000    0.7139000300000000    0.3699699940000000 Si
   0.6678199770000000    0.6190599800000000    0.3431600030000000 Si
   0.7700499890000000    0.6735500100000000    0.4697900120000000 Si
   0.7169700260000000    0.7153099780000000    0.3693099920000000 Si
   0.8091999890000000    0.6150500180000000    0.3407999870000000 Si
   0.9069200160000001    0.6735900040000000    0.4697799980000000 Si
   0.8584700230000000    0.7134900090000000    0.3552199900000000 Si
   0.9545300010000000    0.6190800070000000    0.3431600030000000 Si
   0.8582800030000000    0.7132200000000000    0.4314199980000000 Si
   0.0017000000000000    0.7153499719999999    0.3692500000000000 Si
   0.0956100000000000    0.6205099820000000    0.3399899900000000 Si
   0.1440899970000000    0.8560900090000000    0.3551099900000000 Si
   0.2391099930000000    0.7611200210000000    0.3419699970000000 Si
   0.2862699930000000    0.8555899860000000    0.3699499960000000 Si
   0.3801699880000000    0.7570999859999999    0.3404499890000000 Si
   0.4295600060000000    0.8557999730000000    0.3540300130000000 Si
   0.5252599720000000    0.7610700130000000    0.3419499990000000 Si
   0.5726100210000000    0.8555799720000000    0.3698999880000000 Si
   0.6658400300000000    0.7579100130000000    0.3400799930000000 Si
   0.7152799960000000    0.8560699820000000    0.3550800090000000 Si
   0.8094599840000000    0.7624199990000000    0.3389000000000000 Si
   0.9028499719999999    0.8023200040000000    0.4697600010000000 Si
   0.8577200170000000    0.8554099800000000    0.3686800000000000 Si
   0.9564399720000000    0.7625700240000000    0.3388600050000000 Si
   0.0010600000000000    0.8555399780000000    0.3686200080000000 Si
   0.0953800010000000    0.7579500080000000    0.3400399980000000 Si
   0.1446599960000000    0.9991800190000000    0.3686299920000000 Si
   0.2422399970000000    0.9048399930000000    0.3400300150000000 Si
   0.2848500010000000    0.9985200170000000    0.3692600130000000 Si
   0.3796899910000000    0.9046099780000000    0.3400000040000000 Si
   0.4304899870000000    0.9986699820000000    0.3686800000000000 Si
   0.5282300110000000    0.9046499730000001    0.3399899900000000 Si
   0.5714799760000000    0.9987199900000000    0.3686499890000000 Si
   0.6658999920000001    0.9048699740000000    0.3400399980000000 Si
   0.7169299720000000    0.9985700250000000    0.3692800100000000 Si
   0.8136199710000001    0.9052000050000000    0.3398500080000000 Si
   0.8576899770000000    0.9991000289999999    0.3686699870000000 Si
   0.9537699820000000    0.9043800230000000    0.3436400000000000 Si
   0.0011500000000000    0.9991199970000000    0.3672699930000000 Si
   0.0949599970000000    0.9052799940000000    0.3398300110000000 Si
   0.2860600050000000    0.1414799990000000    0.5149800180000000 Si
   0.5727000240000000    0.4275099930000000    0.5144799950000000 Si
   0.8587599990000000    0.7141900060000000    0.5149800180000000 Si
   0.8586900230000000    0.1415400060000000    0.5149899720000000 Si
   0.5727099780000000    0.1420200020000000    0.5144299860000000 Si
   0.8581799860000000    0.4275000100000000    0.5144400000000000 Si
   0.4293499890000000    0.8553400040000000    0.5119000080000000 Si
   0.7156299950000000    0.8563500050000000    0.5135599970000000 Si
   0.1439200040000000    0.2846400140000000    0.5135200020000000 Si
   0.1448699980000000    0.5708400010000000    0.5119000080000000 Si
   0.4294100110000000    0.5708900090000000    0.5118200180000000 Si
   0.1439999940000000    0.8562399740000000    0.5135700110000000 Si
   0.0996700000000000    0.9005900030000000    0.4701299970000000 Si
   0.0960100000000000    0.7671999930000000    0.4699200090000000 Si
   0.1443600060000000    0.8559499980000000    0.4315100010000000 Si
   0.0973600000000000    0.6124699710000000    0.4690499900000000 Si
   0.1438499990000000    0.7140499950000000    0.4500699940000000 Si
   0.0973099990000000    0.4817300140000000    0.4690499900000000 Si
   0.1453499940000000    0.5710999970000000    0.4302999970000000 Si
   0.0959800030000000    0.3257499930000000    0.4698500040000000 Si
   0.1438400000000000    0.4266999960000000    0.4500100020000000 Si
   0.0995799970000000    0.1959400030000000    0.4701200130000000 Si
   0.1443099980000000    0.2852700050000000    0.4314599930000000 Si
   0.2331099960000000    0.9043200020000000    0.4699299930000000 Si
   0.2375099960000000    0.7627400160000000    0.4820599850000000 Si
   0.2861900030000000    0.8564100270000000    0.4500600100000000 Si
   0.2345899940000000    0.6157199740000000    0.4682599900000000 Si
   0.2839199900000000    0.7163400049999999    0.4501399990000000 Si
   0.2375199940000000    0.4716599880000000    0.4819799960000000 Si
   0.2839800120000000    0.5645200010000000    0.4501000050000000 Si
   0.2330400050000000    0.3256900010000000    0.4699200090000000 Si
   0.2861999870000000    0.4266299900000000    0.4500400130000000 Si
   0.3877500000000000    0.9028800130000000    0.4690499900000000 Si
   0.3845500050000000    0.7657099960000000    0.4682199950000000 Si
   0.4291900100000000    0.8549600240000000    0.4302999970000000 Si
   0.3846200110000000    0.6156799790000000    0.4681600030000000 Si
   0.4357799890000000    0.7163199780000000    0.4501500130000000 Si
   0.3877800110000000    0.4816699920000000    0.4690600040000000 Si
   0.4292800130000000    0.5710399750000000    0.4302600030000000 Si
   0.5185400250000000    0.9029399750000000    0.4690800010000000 Si
   0.5286599990000000    0.7627800110000000    0.4819999930000000 Si
   0.5735800270000000    0.8564400080000000    0.4500199850000000 Si
   0.5186200140000000    0.6125199790000000    0.4690699880000000 Si
   0.5736399890000000    0.7140600090000000    0.4500499960000000 Si
   0.6745899920000000    0.9042699930000000    0.4698199930000000 Si
   0.6745700240000000    0.7671599980000000    0.4700399940000000 Si
   0.7149900200000000    0.8558400269999999    0.4314900040000000 Si
   0.8043199780000000    0.9006400110000000    0.4700900020000000 Si
   0.8351600170000000    0.8332300190000000    0.4445399940000000 Si
   0.7440500260000000    0.7422900200000000    0.4447799920000000 Si
   0.5460500120000000    0.5443599820000000    0.4442400040000000 Si
   0.4559499920000000    0.4542700050000000    0.4442299900000000 Si
   0.2579199970000000    0.2561799880000000    0.4447799920000000 Si
   0.1669700000000000    0.1650799960000000    0.4445399940000000 Si
   0.0014400000000000    0.8332499860000000    0.4444999990000000 Si
   0.0016400000000000    0.7423300150000000    0.4447300140000000 Si
   0.0017500000000000    0.5443800090000001    0.4442099930000000 Si
   0.0017400000000000    0.4542799890000000    0.4441800120000000 Si
   0.0015700000000000    0.2562499940000000    0.4447799920000000 Si
   0.0013700000000000    0.1651200060000000    0.4445599910000000 Si
   0.8351299760000001    0.9988399740000000    0.4445399940000000 Si
   0.7440500260000000    0.9987000230000000    0.4447500110000000 Si
   0.5459799770000000    0.9984899760000000    0.4442000090000000 Si
   0.4558700030000000    0.9984899760000000    0.4442099930000000 Si
   0.2578899860000000    0.9986600280000000    0.4447300140000000 Si
   0.1669600010000000    0.9988300200000000    0.4444899860000000 Si
   0.0960199980000000    0.0475200000000000    0.2625499960000000 Si
   0.0484000000000000    0.0951400030000000    0.2370000030000000 Si
   0.2388799940000000    0.0475200000000000    0.2625499960000000 Si
   0.1912599950000000    0.0951400030000000    0.2370000030000000 Si
   0.3817299900000000    0.0475200000000000    0.2625499960000000 Si
   0.3341099920000000    0.0951400030000000    0.2370000030000000 Si
   0.5245900150000000    0.0475200000000000    0.2625499960000000 Si
   0.4769699870000000    0.0951400030000000    0.2370000030000000 Si
   0.6674500110000000    0.0475200000000000    0.2625499960000000 Si
   0.6198300120000000    0.0951400030000000    0.2370000030000000 Si
   0.8102999930000000    0.0475200000000000    0.2625499960000000 Si
   0.7626900080000000    0.0951400030000000    0.2370000030000000 Si
   0.9531599880000000    0.0475200000000000    0.2625499960000000 Si
   0.9055399890000000    0.0951400030000000    0.2370000030000000 Si
   0.0960199980000000    0.1903800070000000    0.2625499960000000 Si
   0.0484000000000000    0.2380000050000000    0.2370000030000000 Si
   0.2388799940000000    0.1903800070000000    0.2625499960000000 Si
   0.1912599950000000    0.2380000050000000    0.2370000030000000 Si
   0.3817299900000000    0.1903800070000000    0.2625499960000000 Si
   0.3341099920000000    0.2380000050000000    0.2370000030000000 Si
   0.5245900150000000    0.1903800070000000    0.2625499960000000 Si
   0.4769699870000000    0.2380000050000000    0.2370000030000000 Si
   0.6674500110000000    0.1903800070000000    0.2625499960000000 Si
   0.6198300120000000    0.2380000050000000    0.2370000030000000 Si
   0.8102999930000000    0.1903800070000000    0.2625499960000000 Si
   0.7626900080000000    0.2380000050000000    0.2370000030000000 Si
   0.9531599880000000    0.1903800070000000    0.2625499960000000 Si
   0.9055399890000000    0.2380000050000000    0.2370000030000000 Si
   0.0960199980000000    0.3332400020000000    0.2625499960000000 Si
   0.0484000000000000    0.3808600010000000    0.2370000030000000 Si
   0.2388799940000000    0.3332400020000000    0.2625499960000000 Si
   0.1912599950000000    0.3808600010000000    0.2370000030000000 Si
   0.3817299900000000    0.3332400020000000    0.2625499960000000 Si
   0.3341099920000000    0.3808600010000000    0.2370000030000000 Si
   0.5245900150000000    0.3332400020000000    0.2625499960000000 Si
   0.4769699870000000    0.3808600010000000    0.2370000030000000 Si
   0.6674500110000000    0.3332400020000000    0.2625499960000000 Si
   0.6198300120000000    0.3808600010000000    0.2370000030000000 Si
   0.8102999930000000    0.3332400020000000    0.2625499960000000 Si
   0.7626900080000000    0.3808600010000000    0.2370000030000000 Si
   0.9531599880000000    0.3332400020000000    0.2625499960000000 Si
   0.9055399890000000    0.3808600010000000    0.2370000030000000 Si
   0.0960199980000000    0.4760900140000000    0.2625499960000000 Si
   0.0484000000000000    0.5237100120000000    0.2370000030000000 Si
   0.2388799940000000    0.4760900140000000    0.2625499960000000 Si
   0.1912599950000000    0.5237100120000000    0.2370000030000000 Si
   0.3817299900000000    0.4760900140000000    0.2625499960000000 Si
   0.3341099920000000    0.5237100120000000    0.2370000030000000 Si
   0.5245900150000000    0.4760900140000000    0.2625499960000000 Si
   0.4769699870000000    0.5237100120000000    0.2370000030000000 Si
   0.6674500110000000    0.4760900140000000    0.2625499960000000 Si
   0.6198300120000000    0.5237100120000000    0.2370000030000000 Si
   0.8102999930000000    0.4760900140000000    0.2625499960000000 Si
   0.7626900080000000    0.5237100120000000    0.2370000030000000 Si
   0.9531599880000000    0.4760900140000000    0.2625499960000000 Si
   0.9055399890000000    0.5237100120000000    0.2370000030000000 Si
   0.0960199980000000    0.6189500090000000    0.2625499960000000 Si
   0.0484000000000000    0.6665700080000000    0.2370000030000000 Si
   0.2388799940000000    0.6189500090000000    0.2625499960000000 Si
   0.1912599950000000    0.6665700080000000    0.2370000030000000 Si
   0.3817299900000000    0.6189500090000000    0.2625499960000000 Si
   0.3341099920000000    0.6665700080000000    0.2370000030000000 Si
   0.5245900150000000    0.6189500090000000    0.2625499960000000 Si
   0.4769699870000000    0.6665700080000000    0.2370000030000000 Si
   0.6674500110000000    0.6189500090000000    0.2625499960000000 Si
   0.6198300120000000    0.6665700080000000    0.2370000030000000 Si
   0.8102999930000000    0.6189500090000000    0.2625499960000000 Si
   0.7626900080000000    0.6665700080000000    0.2370000030000000 Si
   0.9531599880000000    0.6189500090000000    0.2625499960000000 Si
   0.9055399890000000    0.6665700080000000    0.2370000030000000 Si
   0.0960199980000000    0.7618100050000000    0.2625499960000000 Si
   0.0484000000000000    0.8094300030000000    0.2370000030000000 Si
   0.2388799940000000    0.7618100050000000    0.2625499960000000 Si
   0.1912599950000000    0.8094300030000000    0.2370000030000000 Si
   0.3817299900000000    0.7618100050000000    0.2625499960000000 Si
   0.3341099920000000    0.8094300030000000    0.2370000030000000 Si
   0.5245900150000000    0.7618100050000000    0.2625499960000000 Si
   0.4769699870000000    0.8094300030000000    0.2370000030000000 Si
   0.6674500110000000    0.7618100050000000    0.2625499960000000 Si
   0.6198300120000000    0.8094300030000000    0.2370000030000000 Si
   0.8102999930000000    0.7618100050000000    0.2625499960000000 Si
   0.7626900080000000    0.8094300030000000    0.2370000030000000 Si
   0.9531599880000000    0.7618100050000000    0.2625499960000000 Si
   0.9055399890000000    0.8094300030000000    0.2370000030000000 Si
   0.0960199980000000    0.9046700000000000    0.2625499960000000 Si
   0.0484000000000000    0.9522799850000000    0.2370000030000000 Si
   0.2388799940000000    0.9046700000000000    0.2625499960000000 Si
   0.1912599950000000    0.9522799850000000    0.2370000030000000 Si
   0.3817299900000000    0.9046700000000000    0.2625499960000000 Si
   0.3341099920000000    0.9522799850000000    0.2370000030000000 Si
   0.5245900150000000    0.9046700000000000    0.2625499960000000 Si
   0.4769699870000000    0.9522799850000000    0.2370000030000000 Si
   0.6674500110000000    0.9046700000000000    0.2625499960000000 Si
   0.6198300120000000    0.9522799850000000    0.2370000030000000 Si
   0.8102999930000000    0.9046700000000000    0.2625499960000000 Si
   0.7626900080000000    0.9522799850000000    0.2370000030000000 Si
   0.9531599880000000    0.9046700000000000    0.2625499960000000 Si
   0.9055399890000000    0.9522799850000000    0.2370000030000000 Si
